objective value:                 0.000858964352999984
x_1_2                                               1 	(obj:0)
x_2_3                                               1 	(obj:0)
x_3_2                                               1 	(obj:0)
x_4_1                                               1 	(obj:0)
x_5_1                                               1 	(obj:0)
x_6_3                                               1 	(obj:0)
x_7_3                                               1 	(obj:0)
x_8_2                                               1 	(obj:0)
x_9_1                                               1 	(obj:0)
x_10_1                                              1 	(obj:0)
x_11_2                                              1 	(obj:0)
x_12_2                                              1 	(obj:0)
x_13_3                                              1 	(obj:0)
x_14_3                              0.999999999999998 	(obj:0)
x_15_1                                              1 	(obj:0)
x_16_2                                              1 	(obj:0)
x_17_3                                              1 	(obj:0)
x_18_3                               1.00000000000001 	(obj:0)
x_19_2                                              1 	(obj:0)
x_20_2                                              1 	(obj:0)
ind_1                                               1 	(obj:0)
abs_1_3                                             1 	(obj:0)
ind_2                                               1 	(obj:0)
abs_2_1                                             1 	(obj:0)
ind_3                                               1 	(obj:0)
abs_3_2                                             1 	(obj:0)
epsI                             0.000858964352999984 	(obj:1)
prodt_x_19_2_t_x_20_2_coh_2                         1 	(obj:0)
prodt_x_1_2_t_x_2_1_more_coh_1           1.7069762672 	(obj:0)
prodt_x_4_1_t_x_5_1_more_coh_1          2.98397230745 	(obj:0)
prodt_x_5_1_t_x_6_1_more_coh_1           2.6940945864 	(obj:0)
prodt_x_9_1_t_x_14_1_more_coh_1          2.3060723691 	(obj:0)
prodt_x_10_1_t_x_11_1_more_coh_1         1.8744234236 	(obj:0)
prodt_x_1_2_t_x_2_2_more_coh_2             3.85981023 	(obj:0)
prodt_x_3_2_t_x_4_2_more_coh_2       3.16543449960001 	(obj:0)
prodt_x_8_2_t_x_11_2_more_coh_2          3.4118985675 	(obj:0)
prodt_x_11_2_t_x_12_2_more_coh_2          2.410686843 	(obj:0)
prodt_x_12_2_t_x_13_2_more_coh_2         2.5070722413 	(obj:0)
prodt_x_16_2_t_x_17_2_more_coh_2         1.0694239709 	(obj:0)
prodt_x_2_3_t_x_3_3_more_coh_3       6.09029156830001 	(obj:0)
prodt_x_6_3_t_x_7_3_more_coh_3       4.63491432480001 	(obj:0)
prodt_x_7_3_t_x_9_3_more_coh_3       3.57448725140001 	(obj:0)
prodt_x_13_3_t_x_15_3_more_coh_3     3.58581976300001 	(obj:0)
prodt_x_14_3_t_x_15_3_more_coh_3         0.7643850163 	(obj:0)
prodt_x_17_3_t_x_18_3_more_coh_3     1.18642140160001 	(obj:0)
prodt_x_1_2_t_x_2_2_more_irrev1_2_1    -1.27810480472912 	(obj:0)
prodt_x_3_2_t_x_4_1_more_irrev1_2_1   -0.330041093367282 	(obj:0)
prodt_x_4_1_t_x_5_2_more_irrev1_2_1    -1.13380687999882 	(obj:0)
prodt_x_5_1_t_x_10_2_more_irrev1_2_1    -2.89441712663943 	(obj:0)
prodt_x_8_2_t_x_9_1_more_irrev1_2_1    -1.75450308342711 	(obj:0)
prodt_x_9_1_t_x_11_2_more_irrev1_2_1    -2.80192813143809 	(obj:0)
prodt_x_10_1_t_x_12_2_more_irrev1_2_1   -0.803961671047216 	(obj:0)
prodt_x_11_2_t_x_13_1_more_irrev1_2_1   -0.187503181719713 	(obj:0)
prodt_x_12_2_t_x_13_1_more_irrev1_2_1   -0.750693850000003 	(obj:0)
prodt_x_15_1_t_x_20_2_more_irrev1_2_1    -1.66488691232284 	(obj:0)
prodt_x_1_2_t_x_2_2_more_irrev2_2_1     1.27810480472912 	(obj:0)
prodt_x_3_2_t_x_4_1_more_irrev2_2_1    0.330041093367282 	(obj:0)
prodt_x_4_1_t_x_5_2_more_irrev2_2_1           1.13380688 	(obj:0)
prodt_x_5_1_t_x_10_2_more_irrev2_2_1     2.89441712663945 	(obj:0)
prodt_x_8_2_t_x_9_1_more_irrev2_2_1     1.75450308342711 	(obj:0)
prodt_x_9_1_t_x_11_2_more_irrev2_2_1     2.80192813143809 	(obj:0)
prodt_x_10_1_t_x_12_2_more_irrev2_2_1    0.803961671047213 	(obj:0)
prodt_x_11_2_t_x_13_1_more_irrev2_2_1    0.187503181719713 	(obj:0)
prodt_x_12_2_t_x_13_1_more_irrev2_2_1    0.750693850000003 	(obj:0)
prodt_x_15_1_t_x_20_2_more_irrev2_2_1     1.66488691232284 	(obj:0)
prodt_x_1_2_t_x_2_3_more_irrev1_3_1     1.28107854317552 	(obj:0)
prodt_x_2_3_t_x_3_1_more_irrev1_3_1     2.41920363905112 	(obj:0)
prodt_x_4_1_t_x_5_3_more_irrev1_3_1           2.23596157 	(obj:0)
prodt_x_5_1_t_x_10_3_more_irrev1_3_1    0.641407207089576 	(obj:0)
prodt_x_6_3_t_x_7_1_more_irrev1_3_1      1.0690146052012 	(obj:0)
prodt_x_7_3_t_x_10_1_more_irrev1_3_1           1.55041104 	(obj:0)
prodt_x_9_1_t_x_11_3_more_irrev1_3_1    0.780902874711359 	(obj:0)
prodt_x_10_1_t_x_12_3_more_irrev1_3_1     2.42628741684933 	(obj:0)
prodt_x_13_3_t_x_17_1_more_irrev1_3_1                    1 	(obj:0)
prodt_x_14_3_t_x_15_1_more_irrev1_3_1   0.0385206727225813 	(obj:0)
prodt_x_15_1_t_x_20_3_more_irrev1_3_1     1.42972987037426 	(obj:0)
prodt_x_1_2_t_x_2_3_more_irrev2_3_1    -1.28107854317552 	(obj:0)
prodt_x_2_3_t_x_3_1_more_irrev2_3_1    -2.41920363905112 	(obj:0)
prodt_x_4_1_t_x_5_3_more_irrev2_3_1          -2.23596157 	(obj:0)
prodt_x_5_1_t_x_10_3_more_irrev2_3_1   -0.641407207089576 	(obj:0)
prodt_x_6_3_t_x_7_1_more_irrev2_3_1     -1.0690146052012 	(obj:0)
prodt_x_7_3_t_x_10_1_more_irrev2_3_1          -1.55041104 	(obj:0)
prodt_x_9_1_t_x_11_3_more_irrev2_3_1   -0.780902874711359 	(obj:0)
prodt_x_10_1_t_x_12_3_more_irrev2_3_1    -2.42628741684933 	(obj:0)
prodt_x_13_3_t_x_17_1_more_irrev2_3_1                   -1 	(obj:0)
prodt_x_14_3_t_x_15_1_more_irrev2_3_1  -0.0385206727225813 	(obj:0)
prodt_x_15_1_t_x_20_3_more_irrev2_3_1    -1.42972987037426 	(obj:0)
prodt_x_1_2_t_x_2_3_more_irrev1_3_2    -1.28107854317552 	(obj:0)
prodt_x_2_3_t_x_3_2_more_irrev1_3_2    -0.64690650241941 	(obj:0)
prodt_x_3_2_t_x_4_3_more_irrev1_3_2    -3.51194111607578 	(obj:0)
prodt_x_6_3_t_x_7_2_more_irrev1_3_2    -3.72156213836357 	(obj:0)
prodt_x_7_3_t_x_10_2_more_irrev1_3_2          -0.36409796 	(obj:0)
prodt_x_8_2_t_x_9_3_more_irrev1_3_2    -1.33657284359272 	(obj:0)
prodt_x_11_2_t_x_13_3_more_irrev1_3_2    -2.84299912376941 	(obj:0)
prodt_x_12_2_t_x_14_3_more_irrev1_3_2   -0.309694419999999 	(obj:0)
prodt_x_13_3_t_x_17_2_more_irrev1_3_2   -0.857918574738368 	(obj:0)
prodt_x_14_3_t_x_15_2_more_irrev1_3_2    -2.18492706436007 	(obj:0)
prodt_x_16_2_t_x_20_3_more_irrev1_3_2   -0.583548122450793 	(obj:0)
prodt_x_17_3_t_x_18_2_more_irrev1_3_2   -0.140197285430843 	(obj:0)
prodt_x_18_3_t_x_19_2_more_irrev1_3_2     1.74741099626432 	(obj:0)
prodt_x_1_2_t_x_2_3_more_irrev2_3_2     1.28107854317552 	(obj:0)
prodt_x_2_3_t_x_3_2_more_irrev2_3_2    0.646906502419517 	(obj:0)
prodt_x_3_2_t_x_4_3_more_irrev2_3_2     3.51194111607578 	(obj:0)
prodt_x_6_3_t_x_7_2_more_irrev2_3_2     3.72156213836357 	(obj:0)
prodt_x_7_3_t_x_10_2_more_irrev2_3_2    0.364097960000001 	(obj:0)
prodt_x_8_2_t_x_9_3_more_irrev2_3_2     1.33657284359272 	(obj:0)
prodt_x_11_2_t_x_13_3_more_irrev2_3_2     2.84299912376942 	(obj:0)
prodt_x_12_2_t_x_14_3_more_irrev2_3_2    0.309694419999999 	(obj:0)
prodt_x_13_3_t_x_17_2_more_irrev2_3_2    0.857918574738368 	(obj:0)
prodt_x_14_3_t_x_15_2_more_irrev2_3_2     2.18492706436007 	(obj:0)
prodt_x_16_2_t_x_20_3_more_irrev2_3_2    0.583548122450793 	(obj:0)
prodt_x_17_3_t_x_18_2_more_irrev2_3_2    0.140197285430843 	(obj:0)
prodt_x_18_3_t_x_19_2_more_irrev2_3_2     1.74741099626434 	(obj:0)
SCIP Status        : solving was interrupted [time limit reached]
Total Time         :    3600.00
  solving          :    3600.00
  presolving       :       0.04 (included in solving)
  reading          :       0.00
  copying          :       1.05 (141 #copies) (minimal 0.00, maximal 0.02, average 0.01)
Original Problem   :
  Problem name     : ../instances/Pot4/Pot4_T_20B_alpha=7.txt.spa
  Variables        : 101 (100 binary, 0 integer, 0 implicit integer, 1 continuous)
  Constraints      : 193 initial, 193 maximal
  Objective sense  : maximize
Presolved Problem  :
  Problem name     : t_../instances/Pot4/Pot4_T_20B_alpha=7.txt.spa
  Variables        : 590 (92 binary, 0 integer, 16 implicit integer, 482 continuous)
  Constraints      : 2015 initial, 5292 maximal
Presolvers         :   ExecTime  SetupTime  Calls  FixedVars   AggrVars   ChgTypes  ChgBounds   AddHoles    DelCons    AddCons   ChgSides   ChgCoefs
  boundshift       :       0.00       0.00      0          0          0          0          0          0          0          0          0          0
  components       :       0.00       0.00      1          0          0          0          0          0          0          0          0          0
  convertinttobin  :       0.00       0.00      0          0          0          0          0          0          0          0          0          0
  domcol           :       0.00       0.00      1          0          0          0          0          0          0          0          0          0
  dualagg          :       0.00       0.00      0          0          0          0          0          0          0          0          0          0
  dualinfer        :       0.00       0.00      0          0          0          0          0          0          0          0          0          0
  gateextraction   :       0.00       0.00      3          0          0          0          0          0        108         34          0          0
  implfree         :       0.00       0.00      0          0          0          0          0          0          0          0          0          0
  implics          :       0.00       0.00      4          0          0          0          0          0          0          0          0          0
  inttobinary      :       0.00       0.00      0          0          0          0          0          0          0          0          0          0
  redvub           :       0.00       0.00      0          0          0          0          0          0          0          0          0          0
  stuffing         :       0.00       0.00      1          0          0          0          0          0          0          0          0          0
  trivial          :       0.00       0.00      7          0          0          0          0          0          0          0          0          0
  tworowbnd        :       0.00       0.00      0          0          0          0          0          0          0          0          0          0
  dualfix          :       0.00       0.00      7          4          0          0          0          0          0          0          0          0
  genvbounds       :       0.00       0.00      0          0          0          0          0          0          0          0          0          0
  probing          :       0.03       0.00      1          0          0          0          4          0          0          0          0          0
  pseudoobj        :       0.00       0.00      0          0          0          0          0          0          0          0          0          0
  varbound         :       0.00       0.00      9          0          0          0          0          0         28         28          0          0
  setppc           :       0.00       0.00     12          0          0          0          0          0          0          0          0          0
  and              :       0.00       0.00      4          0         12          0          0          0         12          0          0          0
  linear           :       0.01       0.00      9          3          1          0          4          0          7          0         12         12
  logicor          :       0.00       0.00      7          0          0          0          0          0          0          0          0          0
  bounddisjunction :       0.00       0.00      0          0          0          0          0          0          0          0          0          0
  quadratic        :       0.00       0.00      2          0          0          0          0          0          0       1915          0          0
  root node        :          -          -      -          1          -          -         82          -          -          -          -          -
Constraints        :     Number  MaxNumber  #Separate #Propagate    #EnfoLP    #EnfoPS     #Check   #ResProp    Cutoffs    DomReds       Cuts    Applied      Conss   Children
  integral         :          0          0          0          0    2269579          0     433086          0          0      27589          0          0        164    4495320
  varbound         :        869        869         85   13724242      19222          0      99253    6438268     107508   95941323          0          0          0          0
  setppc           :        110+       139         85   13616146      19221          0       2131    3027815      29659    6293904          8          0          0          0
  and              :         22         22      61653     311227       3297          0       1728     387491         32      60082        971        953          0          0
  linear           :        979        979         85   13587045      18133          0       1622    3477968     427840  161719203     785333     785129          0          0
  logicor          :         35+       911         81    3853332          0          0          0      98806       7787     198482          3          2          0          0
  bounddisjunction :          0+      2731          0    6462021          0          0          0     434164      20261    7170608          0          0          0          0
  countsols        :          0          0          0          0          4          0     333789          0          0          0          0          0          0          0
Constraint Timings :  TotalTime  SetupTime   Separate  Propagate     EnfoLP     EnfoPS      Check    ResProp    SB-Prop
  integral         :      17.66       0.00       0.00       0.00      17.56       0.00       0.10       0.00       0.00
  varbound         :      76.89       0.00       0.01      75.44       0.12       0.00       0.37       0.89       0.06
  setppc           :      49.78       0.00       0.00      49.11       0.01       0.00       0.01       0.58       0.07
  and              :       0.26       0.00       0.04       0.07       0.00       0.00       0.02       0.13       0.00
  linear           :     224.71       0.00       0.02     221.59       0.49       0.00       0.01       2.33       0.27
  logicor          :      10.63       0.00       0.00      10.56       0.00       0.00       0.00       0.07       0.00
  bounddisjunction :      72.29       0.00       0.00      72.16       0.00       0.00       0.00       0.11       0.02
  countsols        :       0.02       0.00       0.00       0.00       0.00       0.00       0.02       0.00       0.00
Propagators        : #Propagate   #ResProp    Cutoffs    DomReds
  dualfix          :          2          0          0          0
  genvbounds       :          0          0          0          0
  obbt             :          0          0          0          0
  probing          :          0          0          0          0
  pseudoobj        :   14237467          0       6932         80
  redcost          :    4947037          0        214     632031
  rootredcost      :          5          0          0          1
  vbounds          :   15992294       6410          0      13346
Propagator Timings :  TotalTime  SetupTime   Presolve  Propagate    ResProp    SB-Prop
  dualfix          :       0.00       0.00       0.00       0.00       0.00       0.00
  genvbounds       :       2.11       0.00       0.00       2.11       0.00       0.00
  obbt             :       0.00       0.00       0.00       0.00       0.00       0.00
  probing          :       0.03       0.00       0.03       0.00       0.00       0.00
  pseudoobj        :       4.25       0.00       0.00       4.25       0.00       0.00
  redcost          :      23.31       0.00       0.00      23.30       0.00       0.01
  rootredcost      :       2.27       0.00       0.00       2.27       0.00       0.00
  vbounds          :       4.66       0.00       0.00       4.65       0.01       0.00
Conflict Analysis  :       Time      Calls    Success    DomReds  Conflicts   Literals    Reconvs ReconvLits   LP Iters
  propagation      :       9.80     172880     172367          -    2039828       38.6       8811       43.0          -
  infeasible LP    :       6.59      59376      43865          -     727460       39.8        125       17.2          0
  bound exceed. LP :       0.00          0          0          -          0        0.0          0        0.0          0
  strong branching :       0.00          0          0          -          0        0.0          0        0.0          0
  pseudo solution  :       0.00          0          0          -          0        0.0          0        0.0          -
  applied globally :       3.71          -          -          0     334904       19.7          -          -          -
  applied locally  :          -          -          -          0      24207       27.7          -          -          -
Separators         :   ExecTime  SetupTime      Calls    Cutoffs    DomReds       Cuts    Applied      Conss
  cut pool         :       0.00                    84          -          -       1091          -          -    (maximal pool size: 705)
  cgmip            :       0.00       0.00          0          0          0          0          0          0
  clique           :       0.00       0.00         85          0          0         33         25          0
  closecuts        :       0.00       0.00          0          0          0          0          0          0
  cmir             :       0.02       0.00         10          0          0         90         43          0
  disjunctive      :       0.00       0.00          0          0          0          0          0          0
  eccuts           :       0.00       0.00          0          0          0          0          0          0
  flowcover        :       0.10       0.00         15          0          0        318         45          0
  gomory           :       0.04       0.00         10          0          0          3          3          0
  impliedbounds    :       0.02       0.00         85          0          0        682        145          0
  intobj           :       0.00       0.00          0          0          0          0          0          0
  mcf              :       0.00       0.00          1          0          0          0          0          0
  oddcycle         :       0.00       0.00          0          0          0          0          0          0
  rapidlearning    :       0.00       0.00          0          0          0          0          0          0
  strongcg         :       0.05       0.00         20          0          0          8          2          0
  zerohalf         :       0.00       0.00          0          0          0          0          0          0
Pricers            :   ExecTime  SetupTime      Calls       Vars
  problem variables:       0.00          -          0          0
Branching Rules    :   ExecTime  SetupTime   BranchLP  BranchExt   BranchPS    Cutoffs    DomReds       Cuts      Conss   Children
  allfullstrong    :       0.00       0.00          0          0          0          0          0          0          0          0
  cloud            :       0.00       0.00          0          0          0          0          0          0          0          0
  distribution     :       0.00       0.00          0          0          0          0          0          0          0          0
  fullstrong       :       0.00       0.00          0          0          0          0          0          0          0          0
  inference        :       0.00       0.00          0          0          0          0          0          0          0          0
  leastinf         :       0.00       0.00          0          0          0          0          0          0          0          0
  mostinf          :       0.00       0.00          0          0          0          0          0          0          0          0
  multaggr         :       0.00       0.00          0          0          0          0          0          0          0          0
  nodereopt        :       0.00       0.00          0          0          0          0          0          0          0          0
  pscost           :       0.00       0.00          0          0          0          0          0          0          0          0
  random           :       0.00       0.00          0          0          0          0          0          0          0          0
  relpscost        :      16.75       0.00    2250356          0          0          0      27589          0       -197    4495320
Primal Heuristics  :   ExecTime  SetupTime      Calls      Found       Best
  LP solutions     :       0.00          -          -          4          -
  pseudo solutions :       0.00          -          -          0          -
  strong branching :       0.00          -          -          0          -
  SpaGreedy        :     390.47       0.00     333788          2          1
  actconsdiving    :       0.00       0.00          0          0          0
  bound            :       0.00       0.00          0          0          0
  clique           :       0.00       0.00          0          0          0
  coefdiving       :      37.76       0.00      12955          0          0
  crossover        :       0.95       0.00          1          0          0
  dins             :       0.00       0.00          0          0          0
  distributiondivin:      54.29       0.00      12954          0          0
  dualval          :       0.00       0.00          0          0          0
  feaspump         :      18.68       0.00       2180          0          0
  fixandinfer      :       0.00       0.00          0          0          0
  fracdiving       :      37.99       0.00      12955          0          0
  guideddiving     :      38.95       0.00      12955          0          0
  indicator        :       0.37       0.00          0          0          0
  intdiving        :       0.00       0.00          0          0          0
  intshifting      :       0.54       0.00        209          0          0
  linesearchdiving :      37.34       0.00      12955          0          0
  localbranching   :       0.00       0.00          0          0          0
  mutation         :       0.00       0.00          0          0          0
  nlpdiving        :       0.01       0.00          0          0          0
  objpscostdiving  :      18.03       0.00       2510          0          0
  octane           :       0.00       0.00          0          0          0
  ofins            :       0.00       0.00          0          0          0
  oneopt           :       0.80       0.00          4          0          0
  proximity        :       0.00       0.00          0          0          0
  pscostdiving     :      37.10       0.00      12955          0          0
  randrounding     :       0.94       0.00      97637          0          0
  rens             :       0.30       0.00          1          0          0
  reoptsols        :       0.00       0.00          0          0          0
  rins             :       3.82       0.00        108          0          0
  rootsoldiving    :      20.61       0.00       3754          0          0
  rounding         :       0.89       0.00      21027          0          0
  shiftandpropagate:       0.00       0.00          0          0          0
  shifting         :       1.47       0.00       5214          0          0
  simplerounding   :       0.44       0.00          0          0          0
  subnlp           :       0.67       0.00          0          0          0
  trivial          :       0.00       0.00          2          0          0
  trivialnegation  :       0.00       0.00          0          0          0
  trysol           :       0.85       0.00          0          0          0
  twoopt           :       0.00       0.00          0          0          0
  undercover       :       0.00       0.00          1          0          0
  vbounds          :       0.00       0.00          0          0          0
  veclendiving     :      39.87       0.00      12955          0          0
  zeroobj          :       0.00       0.00          0          0          0
  zirounding       :       0.63       0.00       1000          0          0
  other solutions  :          -          -          -          0          -
Diving Statistics  :      Calls      Nodes   LP Iters Backtracks   MinDepth   MaxDepth   AvgDepth  NLeafSols  MinSolDpt  MaxSolDpt  AvgSolDpt
  actconsdiving    :          0          -          -          -          -          -          -          -          -          -          -
  coefdiving       :      12955      92990     855867      19159         16         42       28.5          -          -          -          -
  distributiondivin:      12954      81844     884846      18202         16         40       28.1          -          -          -          -
  fracdiving       :      12955      93981     990407      21990         17         44       28.4          -          -          -          -
  guideddiving     :      12955      96250    1014535      21388         18         48       28.8          -          -          -          -
  linesearchdiving :      12955      84221     948842      21203         17         41       27.7          -          -          -          -
  pscostdiving     :      12955     104473     957402      17872         17         48       29.5          -          -          -          -
  veclendiving     :      12955      92089     834899      26257         17         39       27.9          -          -          -          -
LP                 :       Time      Calls Iterations  Iter/call   Iter/sec  Time-0-It Calls-0-It
  primal LP        :       0.00         13          0       0.00          -       0.00         13
  dual LP          :    1480.34    4206736   62762108      17.80   42397.09      63.08     681069
  lex dual LP      :       0.00          0          0       0.00          -
  barrier LP       :       0.00          0          0       0.00          -       0.00          0
  diving/probing LP:     196.64     325868    8500562      26.09   43229.06
  strong branching :       6.08       4796     205086      42.76   33731.25
    (at root node) :          -         20       1111      55.55          -
  conflict analysis:       0.00          0          0       0.00          -
B&B Tree           :
  number of runs   :          1
  nodes            :    4172543 (2247660 internal, 1924883 leaves)
  nodes (total)    :    4172543 (2247660 internal, 1924883 leaves)
  nodes left       :     307116
  max depth        :         38
  max depth (total):         38
  backtracks       :    1031751 (24.7%)
  delayed cutoffs  :      15490
  repropagations   :     162321 (4657600 domain reductions, 14115 cutoffs)
  avg switch length:       5.77
  switching time   :     501.46
Root Node          :
  First LP value   : +3.00000000000000e+00
  First LP Iters   :        377 (37700.00 Iter/sec)
  First LP Time    :       0.01
  Final Dual Bound : +7.04712587416111e-03
  Final Root Iters :       2901
Solution           :
  Solutions found  :          6 (5 improvements)
  First Solution   : +7.78434548999979e-04   (in run 1, after 1 nodes, 0.04 seconds, depth 0, found by <SpaGreedy>)
  Gap First Sol.   :   infinite
  Gap Last Sol.    :      70.11 %
  Primal Bound     : +8.58964352999984e-04   (in run 1, after 250552 nodes, 243.48 seconds, depth 32, found by <relaxation>)
  Dual Bound       : +1.24603038631166e-03
  Gap              :      45.06 %
  Avg. Gap         :      42.78 % (153999.19 primal-dual integral)
